************************************************************************
file with basedata            : mm14_.bas
initial value random generator: 1797048194
************************************************************************
projects                      :  1
jobs (incl. supersource/sink ):  12
horizon                       :  70
RESOURCES
  - renewable                 :  2   R
  - nonrenewable              :  2   N
  - doubly constrained        :  0   D
************************************************************************
PROJECT INFORMATION:
pronr.  #jobs rel.date duedate tardcost  MPM-Time
    1     10      0       12        6       12
************************************************************************
PRECEDENCE RELATIONS:
jobnr.    #modes  #successors   successors
   0        1          3           1   2   3
   1        3          1           4
   2        3          3           5   6  10
   3        3          1           9
   4        3          2           7  10
   5        3          2           7   8
   6        3          2           8   9
   7        3          1           9
   8        3          1          11
   9        3          1          11
  10        3          1          11
  11        1          0        
************************************************************************
REQUESTS/DURATIONS:
jobnr. mode duration  R 1  R 2  R 3  R 4  E(W 1)  E(W 2)  E(W 3)
------------------------------------------------------------------------
  0      1     0       0    0    0    0     0       0       0
  1      1     3       0    8    9    6    24      27      18
  2      1     4       0    7   10    9    28      40      36
  3      1     6       7    0    7    8    42      42      48
  4      1     3       8    0    8    6    24      24      18
  5      1     2      10    0    4    2    20       8       4
  6      1     3       2    0    6    8     6      18      24
  7      1     3       4    0    4    7    12      12      21
  8      1     3       0    9    9    8    27      27      24
  9      1     3       0    2    8    8     6      24      24
 10      1     2       0    3    5    6     6      10      12
 11      1     0       0    0    0    0     0       0       0
************************************************************************
RESOURCEAVAILABILITIES:
  R 1  R 2  R 3
   23   57   59
************************************************************************
RESOURCE LIMITS:
jobnr.  l(R 1)  u(R 1)  l(R 2)  u(R 2)  l(R 3)  u(R 3)
------------------------------------------------------------------------
  0        0       0       0       0       0       0
  1        4       8       5       9       3       6
  2        4       7       5      10       5       9
  3        4       7       4       7       4       8
  4        4       8       4       8       3       6
  5        5      10       2       4       1       2
  6        1       2       3       6       4       8
  7        2       4       2       4       4       7
  8        5       9       5       9       4       8
  9        1       2       4       8       4       8
 10        2       3       3       5       3       6
 11        0       0       0       0       0       0
************************************************************************
SCENARIOS:
------------------------------------------------------------------------
RESOURCE k = 1
s = 1: (0, 20, 30, 48, 22, 25, 7, 9, 23, 5, 5, 0)
s = 2: (0, 36, 31, 57, 23, 17, 4, 16, 19, 7, 6, 0)
s = 3: (0, 34, 17, 29, 20, 25, 7, 12, 25, 10, 12, 0)
s = 4: (0, 20, 28, 49, 19, 20, 5, 9, 22, 6, 4, 0)
s = 5: (0, 26, 20, 34, 23, 17, 6, 10, 34, 4, 5, 0)
s = 6: (0, 34, 27, 44, 25, 28, 10, 14, 24, 6, 4, 0)
s = 7: (0, 17, 29, 45, 28, 16, 8, 13, 28, 4, 10, 0)
s = 8: (0, 16, 41, 42, 25, 13, 8, 13, 38, 7, 6, 0)
s = 9: (0, 33, 25, 38, 30, 35, 7, 8, 29, 8, 6, 0)
s = 10: (0, 19, 30, 41, 23, 18, 4, 11, 17, 4, 6, 0)
s = 11: (0, 37, 44, 31, 34, 25, 7, 15, 48, 6, 9, 0)
s = 12: (0, 22, 41, 39, 13, 14, 6, 15, 26, 5, 5, 0)
s = 13: (0, 36, 25, 48, 25, 19, 9, 12, 24, 4, 6, 0)
s = 14: (0, 17, 19, 56, 34, 22, 7, 12, 20, 5, 8, 0)
s = 15: (0, 24, 28, 69, 25, 28, 6, 16, 23, 7, 7, 0)
s = 16: (0, 28, 22, 38, 28, 21, 5, 14, 34, 6, 7, 0)
s = 17: (0, 29, 20, 37, 20, 26, 5, 10, 18, 5, 4, 0)
s = 18: (0, 26, 24, 54, 20, 27, 8, 10, 18, 8, 6, 0)
s = 19: (0, 29, 18, 43, 24, 18, 9, 11, 29, 5, 4, 0)
s = 20: (0, 37, 26, 29, 22, 13, 7, 16, 36, 8, 7, 0)
s = 21: (0, 25, 43, 53, 32, 12, 8, 13, 43, 7, 6, 0)
s = 22: (0, 25, 37, 34, 28, 16, 8, 18, 27, 7, 6, 0)
s = 23: (0, 25, 35, 30, 18, 17, 4, 16, 19, 7, 4, 0)
s = 24: (0, 24, 18, 42, 16, 23, 4, 12, 25, 6, 6, 0)
s = 25: (0, 17, 31, 37, 26, 15, 5, 12, 31, 6, 6, 0)
s = 26: (0, 45, 25, 43, 13, 16, 6, 13, 41, 4, 5, 0)
s = 27: (0, 22, 35, 45, 19, 18, 5, 14, 20, 7, 4, 0)
s = 28: (0, 28, 26, 45, 31, 25, 7, 16, 30, 5, 6, 0)
s = 29: (0, 17, 36, 76, 15, 19, 10, 16, 23, 5, 6, 0)
s = 30: (0, 14, 32, 57, 21, 15, 11, 8, 19, 7, 4, 0)
s = 31: (0, 23, 42, 36, 17, 15, 8, 15, 26, 7, 7, 0)
s = 32: (0, 29, 18, 37, 19, 20, 7, 11, 25, 12, 5, 0)
s = 33: (0, 28, 21, 30, 26, 15, 9, 10, 27, 6, 5, 0)
s = 34: (0, 36, 29, 26, 21, 19, 5, 11, 29, 6, 7, 0)
s = 35: (0, 22, 33, 31, 20, 13, 6, 18, 20, 4, 6, 0)
s = 36: (0, 21, 21, 26, 25, 19, 6, 10, 21, 5, 6, 0)
s = 37: (0, 25, 39, 30, 18, 13, 5, 9, 16, 4, 6, 0)
s = 38: (0, 30, 25, 42, 35, 24, 5, 15, 19, 6, 6, 0)
s = 39: (0, 25, 19, 50, 23, 16, 5, 7, 31, 5, 6, 0)
s = 40: (0, 16, 38, 31, 24, 24, 4, 11, 26, 6, 6, 0)
s = 41: (0, 33, 24, 35, 17, 23, 6, 10, 34, 6, 9, 0)
s = 42: (0, 28, 24, 32, 20, 18, 6, 17, 26, 8, 6, 0)
s = 43: (0, 21, 15, 36, 18, 29, 4, 9, 25, 8, 5, 0)
s = 44: (0, 21, 18, 61, 29, 13, 7, 9, 28, 6, 4, 0)
s = 45: (0, 27, 30, 36, 20, 15, 8, 17, 27, 6, 5, 0)
s = 46: (0, 20, 30, 31, 25, 19, 4, 13, 21, 5, 10, 0)
s = 47: (0, 17, 23, 53, 19, 17, 6, 13, 30, 6, 5, 0)
s = 48: (0, 17, 27, 51, 18, 15, 8, 12, 25, 5, 6, 0)
s = 49: (0, 36, 45, 39, 18, 21, 6, 16, 17, 8, 8, 0)
s = 50: (0, 23, 30, 42, 28, 21, 4, 9, 30, 8, 4, 0)
s = 51: (0, 26, 30, 42, 22, 36, 5, 14, 37, 5, 7, 0)
s = 52: (0, 17, 43, 45, 13, 20, 10, 16, 18, 4, 6, 0)
s = 53: (0, 16, 33, 43, 18, 24, 6, 22, 35, 5, 7, 0)
s = 54: (0, 15, 34, 38, 24, 18, 6, 16, 17, 6, 6, 0)
s = 55: (0, 21, 30, 65, 25, 22, 4, 15, 21, 7, 5, 0)
s = 56: (0, 34, 28, 55, 27, 22, 5, 12, 20, 6, 6, 0)
s = 57: (0, 14, 32, 51, 30, 21, 6, 18, 34, 4, 12, 0)
s = 58: (0, 21, 31, 26, 32, 21, 6, 9, 26, 6, 7, 0)
s = 59: (0, 35, 31, 35, 14, 29, 7, 14, 32, 5, 9, 0)
s = 60: (0, 38, 27, 50, 34, 16, 6, 15, 17, 6, 5, 0)
s = 61: (0, 21, 21, 46, 24, 23, 7, 8, 45, 5, 7, 0)
s = 62: (0, 25, 19, 57, 27, 27, 10, 18, 16, 5, 4, 0)
s = 63: (0, 25, 26, 31, 25, 18, 5, 10, 29, 5, 5, 0)
s = 64: (0, 25, 31, 36, 32, 19, 4, 10, 47, 5, 6, 0)
s = 65: (0, 22, 27, 59, 20, 22, 7, 11, 38, 10, 7, 0)
s = 66: (0, 26, 21, 48, 35, 16, 7, 16, 36, 8, 7, 0)
s = 67: (0, 28, 33, 49, 19, 19, 7, 11, 30, 9, 5, 0)
s = 68: (0, 29, 26, 39, 30, 24, 4, 14, 24, 8, 7, 0)
s = 69: (0, 19, 24, 35, 27, 14, 7, 17, 28, 9, 5, 0)
s = 70: (0, 17, 25, 38, 23, 23, 8, 17, 33, 8, 5, 0)
s = 71: (0, 15, 32, 52, 27, 13, 7, 17, 24, 7, 5, 0)
s = 72: (0, 15, 42, 35, 29, 21, 5, 10, 32, 7, 7, 0)
s = 73: (0, 30, 49, 33, 16, 14, 7, 12, 22, 8, 6, 0)
s = 74: (0, 16, 31, 40, 33, 22, 6, 9, 20, 7, 10, 0)
s = 75: (0, 22, 22, 32, 26, 30, 8, 13, 17, 8, 6, 0)
s = 76: (0, 14, 25, 52, 15, 26, 8, 10, 41, 7, 7, 0)
s = 77: (0, 27, 25, 63, 24, 25, 5, 18, 44, 7, 4, 0)
s = 78: (0, 25, 33, 46, 38, 22, 5, 19, 23, 5, 4, 0)
s = 79: (0, 24, 45, 57, 18, 18, 5, 20, 28, 4, 11, 0)
s = 80: (0, 19, 22, 69, 22, 23, 7, 13, 27, 9, 6, 0)
s = 81: (0, 28, 34, 39, 30, 30, 4, 12, 19, 7, 6, 0)
s = 82: (0, 46, 22, 26, 32, 23, 4, 9, 22, 4, 4, 0)
s = 83: (0, 13, 26, 37, 16, 14, 7, 12, 21, 4, 6, 0)
s = 84: (0, 36, 16, 66, 25, 12, 6, 16, 40, 5, 8, 0)
s = 85: (0, 22, 22, 34, 27, 22, 5, 14, 21, 7, 7, 0)
s = 86: (0, 18, 18, 32, 13, 15, 7, 9, 22, 6, 5, 0)
s = 87: (0, 17, 38, 37, 32, 37, 7, 13, 24, 6, 5, 0)
s = 88: (0, 19, 32, 60, 29, 22, 5, 13, 36, 7, 6, 0)
s = 89: (0, 26, 26, 43, 25, 16, 5, 14, 22, 6, 6, 0)
s = 90: (0, 23, 31, 43, 28, 20, 4, 14, 28, 4, 10, 0)
s = 91: (0, 27, 26, 57, 27, 26, 5, 15, 30, 10, 5, 0)
s = 92: (0, 15, 33, 55, 27, 30, 5, 13, 38, 4, 8, 0)
s = 93: (0, 26, 17, 44, 15, 24, 7, 19, 27, 5, 6, 0)
s = 94: (0, 18, 24, 46, 17, 29, 5, 14, 34, 7, 6, 0)
s = 95: (0, 24, 28, 27, 22, 18, 5, 13, 26, 4, 7, 0)
s = 96: (0, 35, 37, 56, 23, 13, 7, 13, 24, 7, 4, 0)
s = 97: (0, 26, 23, 38, 15, 25, 5, 20, 30, 6, 4, 0)
s = 98: (0, 23, 29, 53, 18, 20, 5, 11, 24, 5, 10, 0)
s = 99: (0, 23, 33, 29, 19, 15, 10, 11, 38, 5, 5, 0)
s = 100: (0, 20, 26, 71, 32, 27, 7, 11, 23, 6, 5, 0)
s = 101: (0, 24, 17, 39, 22, 12, 6, 15, 34, 12, 9, 0)
s = 102: (0, 21, 24, 33, 32, 16, 5, 14, 42, 7, 5, 0)
s = 103: (0, 39, 31, 66, 25, 24, 6, 15, 32, 6, 7, 0)
s = 104: (0, 22, 32, 47, 23, 21, 5, 19, 36, 4, 4, 0)
s = 105: (0, 20, 21, 44, 29, 20, 8, 13, 17, 5, 7, 0)
s = 106: (0, 24, 51, 52, 34, 15, 6, 14, 34, 7, 9, 0)
s = 107: (0, 39, 29, 67, 18, 13, 4, 15, 18, 9, 5, 0)
s = 108: (0, 27, 35, 49, 22, 29, 5, 8, 22, 6, 4, 0)
s = 109: (0, 20, 21, 61, 19, 25, 9, 9, 20, 5, 6, 0)
s = 110: (0, 23, 26, 33, 34, 19, 7, 13, 25, 7, 8, 0)
s = 111: (0, 19, 32, 34, 36, 26, 4, 9, 43, 5, 6, 0)
s = 112: (0, 32, 19, 41, 14, 20, 6, 10, 21, 6, 5, 0)
s = 113: (0, 20, 25, 36, 32, 32, 9, 13, 30, 5, 4, 0)
s = 114: (0, 21, 34, 37, 33, 22, 6, 9, 25, 7, 8, 0)
s = 115: (0, 20, 38, 47, 28, 18, 7, 14, 33, 8, 7, 0)
s = 116: (0, 17, 35, 46, 18, 23, 4, 14, 26, 9, 5, 0)
s = 117: (0, 31, 20, 49, 23, 20, 7, 15, 35, 7, 6, 0)
s = 118: (0, 37, 41, 54, 28, 27, 7, 13, 25, 6, 5, 0)
s = 119: (0, 16, 31, 40, 25, 31, 5, 8, 33, 8, 6, 0)
s = 120: (0, 20, 28, 40, 15, 16, 5, 16, 19, 8, 5, 0)
s = 121: (0, 24, 29, 57, 23, 21, 7, 15, 39, 6, 9, 0)
s = 122: (0, 14, 28, 53, 28, 27, 5, 10, 38, 6, 6, 0)
s = 123: (0, 23, 36, 34, 19, 12, 6, 18, 39, 9, 9, 0)
s = 124: (0, 22, 21, 25, 18, 16, 10, 10, 21, 6, 9, 0)
s = 125: (0, 21, 30, 47, 33, 23, 5, 16, 27, 5, 8, 0)
s = 126: (0, 23, 30, 49, 31, 21, 7, 10, 28, 8, 6, 0)
s = 127: (0, 22, 40, 29, 16, 17, 6, 10, 23, 5, 7, 0)
s = 128: (0, 26, 22, 31, 26, 15, 5, 13, 31, 5, 7, 0)
s = 129: (0, 22, 48, 30, 16, 24, 8, 9, 28, 6, 9, 0)
s = 130: (0, 27, 25, 37, 23, 21, 9, 11, 28, 6, 6, 0)
s = 131: (0, 36, 36, 41, 25, 15, 5, 12, 20, 7, 5, 0)
s = 132: (0, 29, 50, 32, 32, 11, 6, 14, 20, 4, 6, 0)
s = 133: (0, 19, 27, 51, 37, 18, 4, 16, 34, 5, 5, 0)
s = 134: (0, 38, 21, 28, 19, 19, 7, 10, 26, 9, 8, 0)
s = 135: (0, 18, 33, 28, 19, 31, 5, 18, 34, 6, 6, 0)
s = 136: (0, 16, 36, 53, 15, 18, 6, 12, 17, 8, 6, 0)
s = 137: (0, 22, 39, 33, 21, 22, 4, 10, 28, 5, 6, 0)
s = 138: (0, 21, 22, 30, 24, 15, 4, 11, 24, 6, 7, 0)
s = 139: (0, 33, 33, 34, 17, 13, 10, 9, 38, 6, 4, 0)
s = 140: (0, 15, 31, 23, 17, 19, 7, 12, 25, 8, 6, 0)
s = 141: (0, 26, 37, 36, 19, 26, 7, 10, 21, 6, 8, 0)
s = 142: (0, 19, 19, 41, 29, 15, 4, 13, 29, 7, 10, 0)
s = 143: (0, 23, 45, 41, 23, 29, 5, 16, 26, 5, 4, 0)
s = 144: (0, 29, 37, 38, 24, 16, 11, 19, 31, 6, 8, 0)
s = 145: (0, 20, 40, 33, 25, 13, 9, 13, 27, 5, 4, 0)
s = 146: (0, 40, 30, 28, 20, 15, 5, 10, 32, 8, 9, 0)
s = 147: (0, 39, 37, 55, 46, 23, 7, 14, 39, 5, 7, 0)
s = 148: (0, 20, 41, 25, 47, 22, 6, 16, 34, 7, 5, 0)
s = 149: (0, 33, 26, 25, 31, 19, 5, 15, 24, 9, 5, 0)
s = 150: (0, 28, 28, 46, 20, 23, 5, 9, 38, 5, 7, 0)
s = 151: (0, 38, 19, 35, 25, 25, 6, 11, 19, 7, 4, 0)
s = 152: (0, 24, 19, 48, 18, 22, 11, 11, 34, 5, 8, 0)
s = 153: (0, 26, 34, 31, 21, 14, 5, 15, 16, 7, 8, 0)
s = 154: (0, 16, 37, 34, 23, 21, 8, 10, 40, 5, 11, 0)
s = 155: (0, 31, 16, 49, 28, 16, 6, 9, 24, 4, 7, 0)
s = 156: (0, 35, 25, 35, 21, 27, 8, 12, 24, 7, 6, 0)
s = 157: (0, 19, 35, 69, 21, 12, 7, 11, 16, 8, 5, 0)
s = 158: (0, 24, 51, 41, 23, 15, 6, 9, 36, 7, 5, 0)
s = 159: (0, 21, 23, 60, 28, 21, 5, 11, 34, 6, 5, 0)
s = 160: (0, 22, 20, 34, 21, 13, 7, 15, 36, 8, 4, 0)
s = 161: (0, 39, 37, 52, 23, 18, 7, 10, 22, 5, 7, 0)
s = 162: (0, 34, 47, 27, 15, 15, 8, 14, 27, 4, 9, 0)
s = 163: (0, 29, 31, 52, 29, 26, 7, 9, 33, 5, 5, 0)
s = 164: (0, 15, 22, 33, 23, 13, 8, 8, 24, 4, 9, 0)
s = 165: (0, 25, 40, 41, 24, 18, 6, 8, 33, 5, 6, 0)
s = 166: (0, 28, 21, 54, 21, 19, 8, 20, 25, 6, 7, 0)
s = 167: (0, 22, 16, 31, 35, 15, 7, 9, 43, 11, 6, 0)
s = 168: (0, 25, 26, 42, 19, 15, 8, 11, 30, 10, 7, 0)
s = 169: (0, 34, 22, 24, 20, 13, 7, 17, 37, 6, 7, 0)
s = 170: (0, 18, 57, 71, 30, 18, 8, 9, 25, 4, 6, 0)
s = 171: (0, 29, 27, 41, 28, 14, 4, 15, 33, 6, 5, 0)
s = 172: (0, 23, 24, 58, 16, 15, 6, 8, 29, 5, 8, 0)
s = 173: (0, 29, 36, 71, 22, 32, 4, 11, 23, 7, 7, 0)
s = 174: (0, 18, 35, 38, 24, 25, 5, 18, 30, 7, 8, 0)
s = 175: (0, 25, 47, 32, 18, 21, 6, 14, 22, 5, 5, 0)
s = 176: (0, 18, 29, 39, 32, 25, 6, 16, 27, 9, 7, 0)
s = 177: (0, 21, 35, 30, 17, 13, 8, 9, 25, 7, 8, 0)
s = 178: (0, 25, 20, 31, 19, 13, 7, 18, 18, 6, 5, 0)
s = 179: (0, 23, 31, 53, 20, 13, 7, 17, 33, 7, 8, 0)
s = 180: (0, 41, 30, 34, 26, 17, 5, 15, 23, 7, 6, 0)
s = 181: (0, 23, 33, 26, 26, 18, 4, 10, 20, 5, 8, 0)
s = 182: (0, 17, 16, 33, 23, 19, 6, 12, 25, 4, 4, 0)
s = 183: (0, 17, 29, 32, 26, 18, 7, 11, 33, 5, 11, 0)
s = 184: (0, 20, 18, 35, 17, 12, 5, 13, 18, 6, 5, 0)
s = 185: (0, 16, 21, 48, 19, 20, 8, 9, 15, 4, 4, 0)
s = 186: (0, 14, 30, 37, 31, 32, 7, 12, 29, 5, 6, 0)
s = 187: (0, 23, 33, 41, 15, 23, 6, 10, 47, 8, 8, 0)
s = 188: (0, 20, 31, 42, 35, 20, 9, 10, 27, 10, 5, 0)
s = 189: (0, 21, 17, 54, 35, 25, 6, 14, 17, 7, 5, 0)
s = 190: (0, 24, 42, 30, 21, 24, 5, 11, 26, 5, 6, 0)
s = 191: (0, 28, 17, 58, 27, 19, 7, 8, 18, 9, 8, 0)
s = 192: (0, 27, 19, 57, 37, 15, 11, 13, 28, 9, 10, 0)
s = 193: (0, 22, 24, 42, 21, 35, 7, 9, 35, 5, 4, 0)
s = 194: (0, 18, 26, 62, 27, 13, 5, 12, 22, 9, 6, 0)
s = 195: (0, 25, 31, 48, 25, 16, 4, 16, 26, 10, 5, 0)
s = 196: (0, 21, 23, 65, 30, 16, 6, 13, 17, 9, 7, 0)
s = 197: (0, 17, 28, 48, 31, 18, 6, 8, 28, 8, 6, 0)
s = 198: (0, 25, 57, 54, 32, 21, 5, 14, 16, 8, 10, 0)
s = 199: (0, 33, 28, 24, 24, 16, 11, 14, 31, 9, 5, 0)
s = 200: (0, 24, 28, 28, 24, 19, 5, 9, 32, 7, 5, 0)
------------------------------------------------------------------------
RESOURCE k = 2
s = 1: (0, 22, 43, 48, 22, 10, 19, 9, 23, 20, 8, 0)
s = 2: (0, 40, 44, 57, 23, 7, 11, 16, 19, 27, 9, 0)
s = 3: (0, 38, 25, 29, 20, 10, 19, 12, 25, 39, 20, 0)
s = 4: (0, 23, 40, 49, 19, 8, 14, 9, 22, 23, 7, 0)
s = 5: (0, 29, 29, 34, 23, 7, 16, 10, 34, 14, 7, 0)
s = 6: (0, 38, 38, 44, 25, 11, 30, 14, 24, 23, 6, 0)
s = 7: (0, 19, 42, 45, 28, 7, 23, 13, 28, 16, 16, 0)
s = 8: (0, 18, 58, 42, 25, 6, 22, 13, 38, 27, 9, 0)
s = 9: (0, 37, 36, 38, 30, 14, 21, 8, 29, 29, 9, 0)
s = 10: (0, 21, 43, 41, 23, 7, 11, 11, 17, 15, 10, 0)
s = 11: (0, 41, 63, 31, 34, 10, 20, 15, 48, 22, 15, 0)
s = 12: (0, 25, 58, 39, 13, 6, 16, 15, 26, 20, 8, 0)
s = 13: (0, 40, 36, 48, 25, 8, 26, 12, 24, 13, 9, 0)
s = 14: (0, 19, 27, 56, 34, 9, 20, 12, 20, 19, 14, 0)
s = 15: (0, 27, 40, 69, 25, 12, 18, 16, 23, 28, 11, 0)
s = 16: (0, 31, 31, 38, 28, 9, 15, 14, 34, 22, 12, 0)
s = 17: (0, 32, 28, 37, 20, 11, 14, 10, 18, 20, 7, 0)
s = 18: (0, 29, 34, 54, 20, 11, 24, 10, 18, 30, 9, 0)
s = 19: (0, 33, 25, 43, 24, 8, 25, 11, 29, 19, 7, 0)
s = 20: (0, 42, 38, 29, 22, 6, 20, 16, 36, 30, 12, 0)
s = 21: (0, 28, 61, 53, 32, 5, 24, 13, 43, 26, 10, 0)
s = 22: (0, 28, 53, 34, 28, 7, 24, 18, 27, 27, 10, 0)
s = 23: (0, 28, 50, 30, 18, 7, 12, 16, 19, 26, 6, 0)
s = 24: (0, 27, 26, 42, 16, 9, 11, 12, 25, 22, 9, 0)
s = 25: (0, 19, 44, 37, 26, 6, 14, 12, 31, 21, 10, 0)
s = 26: (0, 50, 36, 43, 13, 7, 16, 13, 41, 14, 8, 0)
s = 27: (0, 25, 50, 45, 19, 8, 15, 14, 20, 25, 7, 0)
s = 28: (0, 31, 37, 45, 31, 10, 19, 16, 30, 20, 10, 0)
s = 29: (0, 19, 51, 76, 15, 8, 29, 16, 23, 19, 10, 0)
s = 30: (0, 15, 46, 57, 21, 6, 32, 8, 19, 28, 7, 0)
s = 31: (0, 26, 60, 36, 17, 6, 24, 15, 26, 25, 11, 0)
s = 32: (0, 33, 25, 37, 19, 8, 21, 11, 25, 47, 7, 0)
s = 33: (0, 32, 30, 30, 26, 6, 25, 10, 27, 24, 8, 0)
s = 34: (0, 40, 41, 26, 21, 8, 14, 11, 29, 22, 11, 0)
s = 35: (0, 24, 46, 31, 20, 5, 16, 18, 20, 14, 10, 0)
s = 36: (0, 24, 29, 26, 25, 8, 16, 10, 21, 19, 10, 0)
s = 37: (0, 28, 55, 30, 18, 6, 15, 9, 16, 13, 9, 0)
s = 38: (0, 34, 35, 42, 35, 10, 13, 15, 19, 24, 10, 0)
s = 39: (0, 28, 28, 50, 23, 7, 14, 7, 31, 19, 10, 0)
s = 40: (0, 17, 54, 31, 24, 10, 12, 11, 26, 23, 10, 0)
s = 41: (0, 37, 34, 35, 17, 10, 18, 10, 34, 23, 14, 0)
s = 42: (0, 32, 34, 32, 20, 7, 17, 17, 26, 31, 9, 0)
s = 43: (0, 23, 22, 36, 18, 12, 12, 9, 25, 32, 7, 0)
s = 44: (0, 23, 26, 61, 29, 5, 21, 9, 28, 22, 6, 0)
s = 45: (0, 30, 42, 36, 20, 6, 23, 17, 27, 22, 8, 0)
s = 46: (0, 23, 42, 31, 25, 8, 12, 13, 21, 20, 16, 0)
s = 47: (0, 19, 32, 53, 19, 7, 17, 13, 30, 21, 8, 0)
s = 48: (0, 20, 38, 51, 18, 6, 23, 12, 25, 18, 9, 0)
s = 49: (0, 41, 64, 39, 18, 9, 18, 16, 17, 32, 13, 0)
s = 50: (0, 26, 43, 42, 28, 9, 11, 9, 30, 32, 6, 0)
s = 51: (0, 29, 42, 42, 22, 15, 13, 14, 37, 19, 12, 0)
s = 52: (0, 19, 61, 45, 13, 8, 29, 16, 18, 16, 10, 0)
s = 53: (0, 18, 47, 43, 18, 10, 18, 22, 35, 17, 11, 0)
s = 54: (0, 17, 48, 38, 24, 8, 16, 16, 17, 21, 10, 0)
s = 55: (0, 23, 43, 65, 25, 9, 12, 15, 21, 26, 9, 0)
s = 56: (0, 38, 40, 55, 27, 9, 13, 12, 20, 23, 10, 0)
s = 57: (0, 16, 45, 51, 30, 9, 18, 18, 34, 14, 20, 0)
s = 58: (0, 23, 44, 26, 32, 9, 18, 9, 26, 22, 11, 0)
s = 59: (0, 39, 44, 35, 14, 12, 19, 14, 32, 18, 15, 0)
s = 60: (0, 42, 39, 50, 34, 7, 18, 15, 17, 21, 8, 0)
s = 61: (0, 24, 30, 46, 24, 9, 20, 8, 45, 19, 12, 0)
s = 62: (0, 28, 27, 57, 27, 11, 28, 18, 16, 19, 7, 0)
s = 63: (0, 28, 37, 31, 25, 8, 15, 10, 29, 17, 9, 0)
s = 64: (0, 29, 45, 36, 32, 8, 12, 10, 47, 17, 10, 0)
s = 65: (0, 25, 38, 59, 20, 9, 19, 11, 38, 38, 12, 0)
s = 66: (0, 29, 30, 48, 35, 7, 21, 16, 36, 32, 11, 0)
s = 67: (0, 31, 47, 49, 19, 8, 20, 11, 30, 33, 9, 0)
s = 68: (0, 33, 37, 39, 30, 10, 10, 14, 24, 30, 11, 0)
s = 69: (0, 21, 34, 35, 27, 6, 20, 17, 28, 33, 9, 0)
s = 70: (0, 19, 35, 38, 23, 9, 23, 17, 33, 32, 8, 0)
s = 71: (0, 17, 45, 52, 27, 6, 20, 17, 24, 26, 8, 0)
s = 72: (0, 17, 60, 35, 29, 9, 14, 10, 32, 25, 11, 0)
s = 73: (0, 34, 69, 33, 16, 6, 20, 12, 22, 31, 9, 0)
s = 74: (0, 17, 44, 40, 33, 9, 16, 9, 20, 28, 17, 0)
s = 75: (0, 24, 31, 32, 26, 12, 24, 13, 17, 32, 10, 0)
s = 76: (0, 15, 35, 52, 15, 11, 24, 10, 41, 28, 11, 0)
s = 77: (0, 30, 36, 63, 24, 10, 13, 18, 44, 27, 7, 0)
s = 78: (0, 28, 47, 46, 38, 9, 15, 19, 23, 20, 7, 0)
s = 79: (0, 27, 65, 57, 18, 7, 14, 20, 28, 14, 18, 0)
s = 80: (0, 21, 31, 69, 22, 10, 21, 13, 27, 36, 9, 0)
s = 81: (0, 31, 48, 39, 30, 12, 10, 12, 19, 25, 9, 0)
s = 82: (0, 52, 31, 26, 32, 9, 11, 9, 22, 16, 7, 0)
s = 83: (0, 15, 37, 37, 16, 6, 19, 12, 21, 13, 9, 0)
s = 84: (0, 41, 23, 66, 25, 5, 17, 16, 40, 20, 13, 0)
s = 85: (0, 24, 31, 34, 27, 9, 14, 14, 21, 26, 12, 0)
s = 86: (0, 20, 25, 32, 13, 6, 21, 9, 22, 23, 8, 0)
s = 87: (0, 19, 53, 37, 32, 15, 20, 13, 24, 22, 8, 0)
s = 88: (0, 22, 45, 60, 29, 9, 15, 13, 36, 27, 9, 0)
s = 89: (0, 30, 37, 43, 25, 7, 14, 14, 22, 23, 9, 0)
s = 90: (0, 26, 44, 43, 28, 8, 11, 14, 28, 16, 16, 0)
s = 91: (0, 30, 36, 57, 27, 11, 14, 15, 30, 40, 7, 0)
s = 92: (0, 16, 47, 55, 27, 12, 15, 13, 38, 13, 12, 0)
s = 93: (0, 29, 24, 44, 15, 10, 19, 19, 27, 20, 9, 0)
s = 94: (0, 21, 34, 46, 17, 12, 14, 14, 34, 28, 9, 0)
s = 95: (0, 27, 40, 27, 22, 8, 13, 13, 26, 16, 12, 0)
s = 96: (0, 39, 52, 56, 23, 6, 21, 13, 24, 25, 7, 0)
s = 97: (0, 29, 33, 38, 15, 10, 13, 20, 30, 22, 7, 0)
s = 98: (0, 26, 41, 53, 18, 8, 13, 11, 24, 20, 16, 0)
s = 99: (0, 25, 47, 29, 19, 6, 28, 11, 38, 20, 9, 0)
s = 100: (0, 22, 37, 71, 32, 11, 21, 11, 23, 24, 8, 0)
s = 101: (0, 27, 25, 39, 22, 5, 17, 15, 34, 47, 15, 0)
s = 102: (0, 24, 35, 33, 32, 7, 13, 14, 42, 27, 9, 0)
s = 103: (0, 44, 44, 66, 25, 10, 16, 15, 32, 24, 11, 0)
s = 104: (0, 24, 45, 47, 23, 9, 15, 19, 36, 16, 7, 0)
s = 105: (0, 23, 30, 44, 29, 8, 23, 13, 17, 18, 11, 0)
s = 106: (0, 27, 72, 52, 34, 6, 18, 14, 34, 27, 15, 0)
s = 107: (0, 44, 41, 67, 18, 5, 12, 15, 18, 34, 8, 0)
s = 108: (0, 31, 49, 49, 22, 12, 13, 8, 22, 21, 7, 0)
s = 109: (0, 23, 29, 61, 19, 10, 26, 9, 20, 18, 10, 0)
s = 110: (0, 25, 36, 33, 34, 8, 20, 13, 25, 27, 14, 0)
s = 111: (0, 21, 46, 34, 36, 11, 10, 9, 43, 20, 10, 0)
s = 112: (0, 36, 26, 41, 14, 8, 18, 10, 21, 22, 8, 0)
s = 113: (0, 23, 35, 36, 32, 13, 25, 13, 30, 20, 6, 0)
s = 114: (0, 23, 48, 37, 33, 9, 18, 9, 25, 27, 13, 0)
s = 115: (0, 22, 54, 47, 28, 8, 19, 14, 33, 31, 11, 0)
s = 116: (0, 19, 50, 46, 18, 10, 11, 14, 26, 33, 8, 0)
s = 117: (0, 35, 28, 49, 23, 8, 21, 15, 35, 26, 10, 0)
s = 118: (0, 42, 59, 54, 28, 11, 20, 13, 25, 22, 8, 0)
s = 119: (0, 18, 44, 40, 25, 13, 13, 8, 33, 30, 10, 0)
s = 120: (0, 22, 40, 40, 15, 7, 14, 16, 19, 32, 7, 0)
s = 121: (0, 27, 41, 57, 23, 9, 19, 15, 39, 22, 15, 0)
s = 122: (0, 16, 40, 53, 28, 11, 14, 10, 38, 24, 10, 0)
s = 123: (0, 26, 51, 34, 19, 5, 16, 18, 39, 35, 14, 0)
s = 124: (0, 25, 29, 25, 18, 7, 30, 10, 21, 24, 15, 0)
s = 125: (0, 24, 43, 47, 33, 9, 13, 16, 27, 17, 12, 0)
s = 126: (0, 26, 42, 49, 31, 9, 21, 10, 28, 32, 9, 0)
s = 127: (0, 25, 57, 29, 16, 7, 18, 10, 23, 19, 11, 0)
s = 128: (0, 30, 32, 31, 26, 6, 14, 13, 31, 19, 11, 0)
s = 129: (0, 25, 68, 30, 16, 10, 22, 9, 28, 21, 14, 0)
s = 130: (0, 30, 36, 37, 23, 9, 25, 11, 28, 23, 10, 0)
s = 131: (0, 40, 51, 41, 25, 6, 13, 12, 20, 26, 8, 0)
s = 132: (0, 33, 72, 32, 32, 5, 16, 14, 20, 15, 9, 0)
s = 133: (0, 21, 38, 51, 37, 8, 11, 16, 34, 17, 8, 0)
s = 134: (0, 43, 30, 28, 19, 8, 19, 10, 26, 35, 12, 0)
s = 135: (0, 21, 46, 28, 19, 13, 14, 18, 34, 23, 10, 0)
s = 136: (0, 18, 52, 53, 15, 7, 16, 12, 17, 31, 9, 0)
s = 137: (0, 25, 55, 33, 21, 9, 12, 10, 28, 20, 9, 0)
s = 138: (0, 23, 31, 30, 24, 6, 12, 11, 24, 21, 12, 0)
s = 139: (0, 37, 47, 34, 17, 6, 28, 9, 38, 24, 7, 0)
s = 140: (0, 17, 44, 23, 17, 8, 19, 12, 25, 30, 10, 0)
s = 141: (0, 29, 53, 36, 19, 11, 20, 10, 21, 24, 12, 0)
s = 142: (0, 22, 28, 41, 29, 6, 11, 13, 29, 25, 17, 0)
s = 143: (0, 26, 64, 41, 23, 12, 13, 16, 26, 20, 7, 0)
s = 144: (0, 32, 53, 38, 24, 7, 31, 19, 31, 22, 12, 0)
s = 145: (0, 22, 57, 33, 25, 5, 25, 13, 27, 18, 6, 0)
s = 146: (0, 45, 43, 28, 20, 6, 13, 10, 32, 30, 15, 0)
s = 147: (0, 44, 52, 55, 46, 9, 20, 14, 39, 20, 12, 0)
s = 148: (0, 23, 59, 25, 47, 9, 16, 16, 34, 25, 8, 0)
s = 149: (0, 37, 37, 25, 31, 8, 15, 15, 24, 33, 8, 0)
s = 150: (0, 32, 40, 46, 20, 9, 15, 9, 38, 19, 11, 0)
s = 151: (0, 43, 27, 35, 25, 10, 16, 11, 19, 25, 7, 0)
s = 152: (0, 27, 26, 48, 18, 9, 32, 11, 34, 17, 12, 0)
s = 153: (0, 29, 48, 31, 21, 6, 15, 15, 16, 27, 13, 0)
s = 154: (0, 18, 53, 34, 23, 9, 23, 10, 40, 17, 18, 0)
s = 155: (0, 35, 22, 49, 28, 7, 17, 9, 24, 13, 12, 0)
s = 156: (0, 39, 36, 35, 21, 11, 23, 12, 24, 25, 10, 0)
s = 157: (0, 21, 50, 69, 21, 5, 21, 11, 16, 29, 9, 0)
s = 158: (0, 27, 72, 41, 23, 6, 17, 9, 36, 26, 8, 0)
s = 159: (0, 23, 32, 60, 28, 9, 13, 11, 34, 22, 8, 0)
s = 160: (0, 25, 29, 34, 21, 6, 20, 15, 36, 32, 6, 0)
s = 161: (0, 44, 53, 52, 23, 8, 20, 10, 22, 17, 11, 0)
s = 162: (0, 38, 67, 27, 15, 6, 23, 14, 27, 15, 14, 0)
s = 163: (0, 33, 44, 52, 29, 11, 20, 9, 33, 18, 8, 0)
s = 164: (0, 17, 31, 33, 23, 6, 22, 8, 24, 13, 15, 0)
s = 165: (0, 28, 57, 41, 24, 7, 17, 8, 33, 20, 10, 0)
s = 166: (0, 31, 30, 54, 21, 8, 23, 20, 25, 21, 11, 0)
s = 167: (0, 24, 23, 31, 35, 6, 21, 9, 43, 43, 9, 0)
s = 168: (0, 28, 37, 42, 19, 6, 24, 11, 30, 40, 11, 0)
s = 169: (0, 39, 32, 24, 20, 5, 19, 17, 37, 21, 12, 0)
s = 170: (0, 20, 81, 71, 30, 8, 23, 9, 25, 15, 10, 0)
s = 171: (0, 33, 39, 41, 28, 6, 12, 15, 33, 21, 8, 0)
s = 172: (0, 26, 34, 58, 16, 6, 18, 8, 29, 19, 12, 0)
s = 173: (0, 33, 51, 71, 22, 13, 12, 11, 23, 26, 12, 0)
s = 174: (0, 20, 50, 38, 24, 10, 14, 18, 30, 26, 13, 0)
s = 175: (0, 28, 67, 32, 18, 9, 16, 14, 22, 17, 8, 0)
s = 176: (0, 21, 42, 39, 32, 10, 18, 16, 27, 34, 12, 0)
s = 177: (0, 24, 50, 30, 17, 6, 22, 9, 25, 28, 13, 0)
s = 178: (0, 28, 29, 31, 19, 5, 19, 18, 18, 23, 8, 0)
s = 179: (0, 25, 44, 53, 20, 5, 21, 17, 33, 25, 13, 0)
s = 180: (0, 46, 43, 34, 26, 7, 13, 15, 23, 25, 10, 0)
s = 181: (0, 26, 47, 26, 26, 8, 12, 10, 20, 20, 14, 0)
s = 182: (0, 19, 23, 33, 23, 8, 17, 12, 25, 16, 7, 0)
s = 183: (0, 19, 42, 32, 26, 8, 21, 11, 33, 18, 17, 0)
s = 184: (0, 22, 25, 35, 17, 5, 13, 13, 18, 22, 8, 0)
s = 185: (0, 17, 30, 48, 19, 8, 22, 9, 15, 14, 7, 0)
s = 186: (0, 16, 43, 37, 31, 13, 19, 12, 29, 20, 10, 0)
s = 187: (0, 26, 46, 41, 15, 10, 16, 10, 47, 31, 13, 0)
s = 188: (0, 23, 44, 42, 35, 8, 25, 10, 27, 39, 8, 0)
s = 189: (0, 24, 25, 54, 35, 10, 16, 14, 17, 27, 9, 0)
s = 190: (0, 27, 59, 30, 21, 10, 15, 11, 26, 18, 9, 0)
s = 191: (0, 31, 24, 58, 27, 8, 19, 8, 18, 33, 13, 0)
s = 192: (0, 30, 27, 57, 37, 6, 31, 13, 28, 35, 16, 0)
s = 193: (0, 24, 34, 42, 21, 14, 21, 9, 35, 17, 6, 0)
s = 194: (0, 20, 37, 62, 27, 6, 13, 12, 22, 33, 9, 0)
s = 195: (0, 28, 44, 48, 25, 7, 10, 16, 26, 39, 9, 0)
s = 196: (0, 24, 32, 65, 30, 7, 18, 13, 17, 33, 11, 0)
s = 197: (0, 19, 39, 48, 31, 7, 17, 8, 28, 29, 9, 0)
s = 198: (0, 28, 82, 54, 32, 9, 15, 14, 16, 29, 16, 0)
s = 199: (0, 38, 39, 24, 24, 7, 32, 14, 31, 33, 8, 0)
s = 200: (0, 27, 40, 28, 24, 8, 14, 9, 32, 28, 8, 0)
------------------------------------------------------------------------
RESOURCE k = 3
s = 1: (0, 15, 38, 54, 16, 5, 25, 15, 21, 20, 9, 0)
s = 2: (0, 27, 39, 65, 17, 4, 15, 28, 17, 27, 11, 0)
s = 3: (0, 25, 22, 34, 15, 5, 25, 21, 23, 39, 24, 0)
s = 4: (0, 15, 36, 56, 14, 4, 18, 15, 20, 23, 8, 0)
s = 5: (0, 20, 26, 39, 17, 4, 21, 17, 30, 14, 9, 0)
s = 6: (0, 26, 34, 50, 19, 6, 40, 24, 22, 23, 7, 0)
s = 7: (0, 13, 37, 51, 21, 4, 31, 23, 25, 16, 19, 0)
s = 8: (0, 12, 53, 48, 19, 3, 29, 22, 33, 27, 11, 0)
s = 9: (0, 25, 32, 43, 22, 7, 28, 14, 26, 29, 11, 0)
s = 10: (0, 14, 38, 47, 18, 4, 15, 20, 15, 15, 11, 0)
s = 11: (0, 28, 56, 35, 26, 5, 26, 25, 43, 22, 18, 0)
s = 12: (0, 17, 52, 44, 10, 3, 21, 26, 23, 20, 10, 0)
s = 13: (0, 27, 33, 54, 19, 4, 35, 21, 21, 13, 11, 0)
s = 14: (0, 13, 25, 64, 25, 5, 27, 21, 18, 19, 16, 0)
s = 15: (0, 18, 36, 79, 19, 6, 24, 28, 20, 28, 13, 0)
s = 16: (0, 21, 28, 43, 21, 5, 20, 24, 30, 22, 14, 0)
s = 17: (0, 22, 26, 42, 15, 6, 19, 17, 16, 20, 8, 0)
s = 18: (0, 19, 31, 62, 15, 6, 31, 17, 16, 30, 11, 0)
s = 19: (0, 22, 23, 49, 18, 4, 33, 19, 26, 19, 8, 0)
s = 20: (0, 28, 34, 33, 17, 3, 26, 27, 32, 30, 14, 0)
s = 21: (0, 19, 55, 60, 24, 3, 32, 22, 38, 26, 12, 0)
s = 22: (0, 19, 48, 38, 21, 4, 32, 32, 24, 27, 12, 0)
s = 23: (0, 19, 45, 35, 13, 4, 16, 27, 17, 26, 7, 0)
s = 24: (0, 18, 23, 48, 12, 5, 15, 21, 22, 22, 11, 0)
s = 25: (0, 13, 40, 42, 20, 3, 18, 21, 27, 21, 12, 0)
s = 26: (0, 34, 32, 49, 10, 4, 22, 22, 36, 14, 10, 0)
s = 27: (0, 17, 45, 51, 14, 4, 19, 24, 17, 25, 8, 0)
s = 28: (0, 21, 33, 51, 23, 5, 25, 27, 27, 20, 12, 0)
s = 29: (0, 13, 46, 87, 12, 4, 38, 28, 20, 19, 12, 0)
s = 30: (0, 10, 41, 65, 16, 3, 42, 14, 17, 28, 8, 0)
s = 31: (0, 18, 54, 41, 13, 3, 32, 26, 23, 25, 13, 0)
s = 32: (0, 22, 23, 42, 14, 4, 28, 19, 22, 47, 9, 0)
s = 33: (0, 21, 27, 34, 20, 3, 33, 17, 24, 24, 10, 0)
s = 34: (0, 27, 37, 30, 16, 4, 19, 18, 26, 22, 13, 0)
s = 35: (0, 16, 42, 36, 15, 3, 21, 31, 18, 14, 12, 0)
s = 36: (0, 16, 27, 30, 19, 4, 21, 17, 18, 19, 12, 0)
s = 37: (0, 19, 50, 34, 14, 3, 20, 15, 14, 13, 11, 0)
s = 38: (0, 23, 32, 48, 26, 5, 17, 26, 17, 24, 12, 0)
s = 39: (0, 19, 25, 57, 17, 4, 18, 13, 28, 19, 11, 0)
s = 40: (0, 12, 48, 35, 18, 5, 16, 19, 23, 23, 12, 0)
s = 41: (0, 25, 31, 40, 13, 5, 24, 16, 31, 23, 17, 0)
s = 42: (0, 21, 30, 36, 15, 4, 23, 29, 24, 31, 11, 0)
s = 43: (0, 16, 20, 41, 13, 6, 15, 16, 23, 32, 9, 0)
s = 44: (0, 16, 23, 69, 22, 3, 28, 16, 25, 22, 7, 0)
s = 45: (0, 20, 38, 41, 15, 3, 30, 30, 24, 22, 9, 0)
s = 46: (0, 15, 38, 35, 19, 4, 16, 23, 19, 20, 19, 0)
s = 47: (0, 13, 29, 61, 15, 4, 22, 22, 27, 21, 9, 0)
s = 48: (0, 13, 34, 58, 14, 3, 31, 21, 23, 18, 11, 0)
s = 49: (0, 27, 58, 45, 13, 5, 23, 28, 15, 32, 15, 0)
s = 50: (0, 17, 39, 48, 21, 5, 14, 15, 27, 32, 7, 0)
s = 51: (0, 20, 38, 48, 17, 8, 17, 24, 33, 19, 14, 0)
s = 52: (0, 13, 55, 52, 10, 4, 39, 27, 16, 16, 11, 0)
s = 53: (0, 12, 42, 49, 14, 5, 23, 38, 31, 17, 13, 0)
s = 54: (0, 11, 43, 43, 18, 4, 21, 28, 15, 21, 12, 0)
s = 55: (0, 16, 39, 74, 19, 5, 15, 26, 19, 26, 10, 0)
s = 56: (0, 25, 36, 63, 21, 5, 17, 20, 18, 23, 12, 0)
s = 57: (0, 11, 40, 58, 22, 5, 24, 30, 31, 14, 24, 0)
s = 58: (0, 16, 39, 30, 24, 5, 24, 16, 23, 22, 13, 0)
s = 59: (0, 26, 40, 40, 11, 6, 25, 25, 29, 18, 18, 0)
s = 60: (0, 28, 35, 57, 26, 4, 24, 25, 15, 21, 9, 0)
s = 61: (0, 16, 27, 53, 18, 5, 26, 14, 40, 19, 14, 0)
s = 62: (0, 19, 25, 65, 21, 6, 37, 32, 15, 19, 8, 0)
s = 63: (0, 19, 34, 36, 19, 4, 20, 17, 26, 17, 10, 0)
s = 64: (0, 19, 40, 41, 24, 4, 16, 17, 42, 17, 12, 0)
s = 65: (0, 17, 34, 67, 15, 5, 25, 20, 34, 38, 14, 0)
s = 66: (0, 20, 27, 55, 26, 4, 27, 27, 32, 32, 13, 0)
s = 67: (0, 21, 43, 55, 15, 4, 27, 19, 27, 33, 10, 0)
s = 68: (0, 22, 34, 45, 23, 5, 13, 24, 21, 30, 13, 0)
s = 69: (0, 14, 30, 40, 20, 3, 26, 30, 25, 33, 10, 0)
s = 70: (0, 13, 32, 43, 17, 5, 30, 29, 29, 32, 9, 0)
s = 71: (0, 11, 41, 60, 20, 3, 27, 30, 22, 26, 9, 0)
s = 72: (0, 12, 54, 40, 22, 5, 18, 16, 28, 25, 13, 0)
s = 73: (0, 23, 62, 37, 12, 3, 26, 20, 19, 31, 11, 0)
s = 74: (0, 12, 40, 46, 25, 5, 22, 15, 18, 28, 20, 0)
s = 75: (0, 16, 28, 36, 20, 6, 32, 22, 15, 32, 12, 0)
s = 76: (0, 10, 32, 59, 12, 6, 32, 17, 36, 28, 13, 0)
s = 77: (0, 20, 33, 72, 18, 5, 17, 31, 40, 27, 8, 0)
s = 78: (0, 19, 42, 52, 29, 5, 20, 33, 21, 20, 8, 0)
s = 79: (0, 18, 58, 65, 14, 4, 19, 34, 25, 14, 21, 0)
s = 80: (0, 14, 28, 78, 16, 5, 28, 22, 24, 36, 11, 0)
s = 81: (0, 21, 43, 45, 23, 6, 13, 21, 17, 25, 11, 0)
s = 82: (0, 35, 28, 29, 24, 5, 14, 16, 19, 16, 8, 0)
s = 83: (0, 10, 33, 42, 12, 3, 25, 21, 19, 13, 11, 0)
s = 84: (0, 27, 20, 75, 19, 3, 23, 28, 35, 20, 16, 0)
s = 85: (0, 16, 28, 39, 20, 5, 18, 23, 19, 26, 14, 0)
s = 86: (0, 14, 23, 36, 10, 3, 28, 16, 19, 23, 10, 0)
s = 87: (0, 13, 48, 42, 24, 8, 27, 22, 21, 22, 9, 0)
s = 88: (0, 15, 41, 68, 22, 5, 20, 22, 32, 27, 11, 0)
s = 89: (0, 20, 33, 49, 19, 4, 18, 25, 20, 23, 11, 0)
s = 90: (0, 17, 40, 49, 21, 4, 15, 24, 25, 16, 20, 0)
s = 91: (0, 20, 33, 65, 21, 6, 19, 25, 27, 40, 9, 0)
s = 92: (0, 11, 42, 62, 20, 6, 20, 22, 34, 13, 15, 0)
s = 93: (0, 20, 21, 51, 11, 5, 25, 32, 24, 20, 11, 0)
s = 94: (0, 14, 31, 52, 13, 6, 18, 24, 31, 28, 11, 0)
s = 95: (0, 18, 36, 31, 17, 4, 18, 22, 23, 16, 14, 0)
s = 96: (0, 26, 47, 64, 17, 3, 28, 22, 21, 25, 8, 0)
s = 97: (0, 20, 30, 43, 11, 5, 17, 34, 27, 22, 8, 0)
s = 98: (0, 17, 37, 61, 14, 4, 18, 18, 21, 20, 19, 0)
s = 99: (0, 17, 43, 33, 15, 3, 37, 19, 34, 20, 10, 0)
s = 100: (0, 15, 34, 81, 24, 6, 27, 19, 21, 24, 9, 0)
s = 101: (0, 18, 22, 44, 17, 3, 22, 26, 30, 47, 17, 0)
s = 102: (0, 16, 31, 38, 24, 4, 17, 25, 38, 27, 10, 0)
s = 103: (0, 29, 40, 75, 19, 5, 21, 25, 28, 24, 13, 0)
s = 104: (0, 16, 41, 53, 17, 5, 20, 33, 32, 16, 8, 0)
s = 105: (0, 15, 27, 51, 22, 4, 30, 23, 15, 18, 13, 0)
s = 106: (0, 18, 65, 60, 26, 3, 24, 25, 30, 27, 18, 0)
s = 107: (0, 29, 37, 77, 14, 3, 16, 26, 16, 34, 10, 0)
s = 108: (0, 21, 45, 56, 16, 6, 17, 13, 19, 21, 8, 0)
s = 109: (0, 15, 26, 70, 14, 5, 34, 15, 18, 18, 11, 0)
s = 110: (0, 17, 33, 37, 26, 4, 27, 22, 22, 27, 16, 0)
s = 111: (0, 14, 41, 38, 27, 6, 14, 15, 38, 20, 11, 0)
s = 112: (0, 24, 24, 47, 10, 4, 24, 17, 19, 22, 10, 0)
s = 113: (0, 15, 32, 41, 24, 7, 33, 22, 27, 20, 7, 0)
s = 114: (0, 16, 43, 42, 25, 5, 24, 15, 22, 27, 16, 0)
s = 115: (0, 15, 49, 53, 21, 4, 25, 23, 29, 31, 14, 0)
s = 116: (0, 13, 45, 52, 14, 5, 15, 24, 23, 33, 10, 0)
s = 117: (0, 23, 25, 56, 18, 4, 28, 26, 32, 26, 12, 0)
s = 118: (0, 28, 53, 61, 21, 6, 26, 22, 22, 22, 9, 0)
s = 119: (0, 12, 39, 46, 19, 7, 17, 14, 29, 30, 12, 0)
s = 120: (0, 15, 36, 46, 12, 4, 18, 27, 17, 32, 9, 0)
s = 121: (0, 18, 37, 65, 17, 5, 25, 26, 35, 22, 18, 0)
s = 122: (0, 11, 36, 61, 21, 6, 18, 16, 34, 24, 12, 0)
s = 123: (0, 18, 46, 39, 14, 3, 21, 30, 35, 35, 17, 0)
s = 124: (0, 17, 26, 29, 13, 4, 39, 17, 19, 24, 18, 0)
s = 125: (0, 16, 39, 53, 25, 5, 17, 27, 24, 17, 15, 0)
s = 126: (0, 18, 38, 56, 23, 5, 28, 17, 25, 32, 11, 0)
s = 127: (0, 17, 51, 33, 12, 4, 24, 17, 20, 19, 13, 0)
s = 128: (0, 20, 29, 35, 20, 3, 19, 23, 28, 19, 13, 0)
s = 129: (0, 17, 62, 34, 12, 5, 29, 16, 25, 21, 17, 0)
s = 130: (0, 20, 33, 42, 17, 5, 33, 20, 25, 23, 12, 0)
s = 131: (0, 27, 46, 46, 19, 3, 18, 20, 18, 26, 9, 0)
s = 132: (0, 22, 65, 36, 24, 3, 22, 25, 17, 15, 11, 0)
s = 133: (0, 14, 34, 58, 28, 4, 15, 28, 30, 17, 10, 0)
s = 134: (0, 29, 27, 32, 14, 4, 26, 18, 23, 35, 15, 0)
s = 135: (0, 14, 42, 31, 15, 7, 19, 31, 30, 23, 12, 0)
s = 136: (0, 12, 47, 61, 12, 4, 22, 21, 15, 31, 11, 0)
s = 137: (0, 17, 50, 38, 16, 5, 16, 16, 25, 20, 11, 0)
s = 138: (0, 16, 28, 34, 18, 3, 16, 19, 22, 21, 14, 0)
s = 139: (0, 25, 42, 38, 13, 3, 37, 15, 34, 24, 8, 0)
s = 140: (0, 12, 39, 26, 13, 4, 25, 21, 22, 30, 12, 0)
s = 141: (0, 20, 48, 41, 14, 6, 26, 17, 18, 24, 15, 0)
s = 142: (0, 15, 25, 47, 22, 3, 15, 23, 26, 25, 20, 0)
s = 143: (0, 17, 58, 47, 17, 6, 17, 27, 23, 20, 8, 0)
s = 144: (0, 22, 48, 43, 18, 4, 41, 33, 27, 22, 15, 0)
s = 145: (0, 15, 52, 38, 19, 3, 33, 22, 24, 18, 7, 0)
s = 146: (0, 30, 38, 32, 15, 3, 17, 17, 29, 30, 18, 0)
s = 147: (0, 29, 47, 63, 34, 5, 26, 24, 35, 20, 14, 0)
s = 148: (0, 15, 53, 28, 35, 5, 21, 28, 31, 25, 9, 0)
s = 149: (0, 25, 34, 28, 23, 4, 20, 26, 22, 33, 10, 0)
s = 150: (0, 21, 36, 53, 15, 5, 20, 15, 34, 19, 13, 0)
s = 151: (0, 29, 24, 39, 19, 5, 21, 20, 17, 25, 8, 0)
s = 152: (0, 18, 24, 55, 14, 5, 42, 18, 31, 17, 15, 0)
s = 153: (0, 19, 43, 35, 16, 3, 20, 25, 15, 27, 16, 0)
s = 154: (0, 12, 47, 39, 17, 5, 30, 17, 36, 17, 21, 0)
s = 155: (0, 24, 20, 56, 21, 4, 23, 16, 21, 13, 14, 0)
s = 156: (0, 26, 32, 40, 16, 6, 30, 21, 22, 25, 11, 0)
s = 157: (0, 14, 45, 78, 16, 3, 28, 19, 14, 29, 10, 0)
s = 158: (0, 18, 65, 47, 17, 3, 22, 16, 32, 26, 9, 0)
s = 159: (0, 16, 29, 68, 21, 5, 17, 19, 30, 22, 9, 0)
s = 160: (0, 17, 26, 39, 16, 3, 26, 25, 32, 32, 7, 0)
s = 161: (0, 29, 48, 59, 18, 4, 27, 16, 20, 17, 13, 0)
s = 162: (0, 26, 60, 31, 11, 3, 31, 25, 24, 15, 17, 0)
s = 163: (0, 22, 40, 59, 22, 6, 26, 16, 30, 18, 9, 0)
s = 164: (0, 12, 28, 37, 18, 3, 29, 14, 21, 13, 18, 0)
s = 165: (0, 19, 52, 47, 18, 4, 23, 13, 30, 20, 12, 0)
s = 166: (0, 21, 27, 61, 16, 4, 31, 35, 22, 21, 13, 0)
s = 167: (0, 16, 21, 35, 26, 3, 28, 16, 38, 43, 11, 0)
s = 168: (0, 19, 34, 48, 15, 3, 32, 19, 27, 40, 13, 0)
s = 169: (0, 26, 29, 28, 15, 3, 25, 29, 33, 21, 14, 0)
s = 170: (0, 13, 73, 81, 23, 4, 30, 16, 22, 15, 12, 0)
s = 171: (0, 22, 35, 47, 21, 3, 16, 26, 29, 21, 9, 0)
s = 172: (0, 17, 31, 66, 12, 3, 24, 13, 25, 19, 15, 0)
s = 173: (0, 22, 46, 81, 17, 7, 16, 18, 20, 26, 14, 0)
s = 174: (0, 13, 45, 43, 18, 5, 19, 31, 27, 26, 16, 0)
s = 175: (0, 19, 60, 36, 14, 5, 21, 25, 19, 17, 10, 0)
s = 176: (0, 14, 38, 45, 24, 5, 24, 27, 24, 34, 14, 0)
s = 177: (0, 16, 45, 34, 13, 3, 29, 15, 22, 28, 15, 0)
s = 178: (0, 19, 26, 35, 15, 3, 25, 31, 16, 23, 9, 0)
s = 179: (0, 17, 40, 60, 15, 3, 27, 29, 30, 25, 16, 0)
s = 180: (0, 31, 39, 39, 19, 4, 17, 26, 20, 25, 12, 0)
s = 181: (0, 17, 43, 29, 20, 4, 16, 17, 18, 20, 16, 0)
s = 182: (0, 13, 21, 37, 17, 4, 23, 20, 23, 16, 8, 0)
s = 183: (0, 13, 38, 37, 20, 4, 28, 19, 29, 18, 21, 0)
s = 184: (0, 15, 23, 40, 13, 3, 18, 22, 16, 22, 9, 0)
s = 185: (0, 12, 27, 55, 14, 4, 29, 15, 14, 14, 8, 0)
s = 186: (0, 11, 39, 42, 24, 7, 25, 21, 26, 20, 12, 0)
s = 187: (0, 17, 42, 47, 12, 5, 21, 18, 42, 31, 15, 0)
s = 188: (0, 15, 39, 48, 26, 4, 34, 17, 24, 39, 9, 0)
s = 189: (0, 16, 22, 61, 27, 5, 21, 25, 15, 27, 10, 0)
s = 190: (0, 18, 53, 35, 16, 5, 20, 20, 23, 18, 11, 0)
s = 191: (0, 21, 21, 67, 20, 4, 25, 14, 16, 33, 16, 0)
s = 192: (0, 20, 25, 65, 28, 3, 41, 23, 25, 35, 19, 0)
s = 193: (0, 16, 31, 48, 16, 7, 27, 15, 31, 17, 8, 0)
s = 194: (0, 14, 33, 70, 20, 3, 17, 21, 19, 33, 11, 0)
s = 195: (0, 19, 40, 54, 19, 4, 13, 28, 23, 39, 10, 0)
s = 196: (0, 16, 29, 74, 23, 4, 24, 22, 15, 33, 14, 0)
s = 197: (0, 13, 35, 55, 23, 4, 23, 14, 25, 29, 11, 0)
s = 198: (0, 19, 73, 62, 24, 5, 19, 24, 14, 29, 19, 0)
s = 199: (0, 25, 35, 27, 18, 4, 42, 23, 27, 33, 9, 0)
s = 200: (0, 18, 36, 32, 18, 4, 18, 16, 28, 28, 9, 0)
************************************************************************
ES/LS-VALUES:
jobnr.   ES(i)    LS(i)
------------------------------------------------------------------------
  0        0        0
  1        0       46
  2        0       45
  3        0       53
  4        5       52
  5        8       54
  6        8       58
  7       12       58
  8       13       64
  9       17       64
 10       10       66
 11       23       70
************************************************************************
BIG-M-VALUES:
M1 = 60, M2 = 239
************************************************************************
